(set-logic QF_UF)
(declare-fun G101 () Bool)
(declare-fun G104 () Bool)
(declare-fun G107 () Bool)
(declare-fun G110 () Bool)
(declare-fun G113 () Bool)
(declare-fun G116 () Bool)
(declare-fun G119 () Bool)
(declare-fun G122 () Bool)
(declare-fun G125 () Bool)
(declare-fun G128 () Bool)
(declare-fun G131 () Bool)
(declare-fun G134 () Bool)
(declare-fun G137 () Bool)
(declare-fun G140 () Bool)
(declare-fun G143 () Bool)
(declare-fun G146 () Bool)
(declare-fun G210 () Bool)
(declare-fun G214 () Bool)
(declare-fun G217 () Bool)
(declare-fun G221 () Bool)
(declare-fun G224 () Bool)
(declare-fun G227 () Bool)
(declare-fun G234 () Bool)
(declare-fun G237 () Bool)
(declare-fun G469 () Bool)
(declare-fun G472 () Bool)
(declare-fun G475 () Bool)
(declare-fun G478 () Bool)
(declare-fun G898 () Bool)
(declare-fun G900 () Bool)
(declare-fun G902 () Bool)
(declare-fun G952 () Bool)
(declare-fun G953 () Bool)
(assert (let ((.def_0 (not G902))) (let ((.def_1 (not G119))) (let ((.def_2 (and G116 .def_1))) (let ((.def_3 (not .def_2))) (let ((.def_4 (not G116))) (let ((.def_5 (and G119 .def_4))) (let ((.def_6 (not .def_5))) (let ((.def_7 (and .def_6 .def_3))) (let ((.def_8 (not .def_7))) (let ((.def_9 (and G113 .def_8))) (let ((.def_10 (not .def_9))) (let ((.def_11 (not G113))) (let ((.def_12 (and .def_11 .def_7))) (let ((.def_13 (not .def_12))) (let ((.def_14 (and .def_13 .def_10))) (let ((.def_15 (not G101))) (let ((.def_16 (not G107))) (let ((.def_17 (and .def_16 G104))) (let ((.def_18 (not .def_17))) (let ((.def_19 (not G104))) (let ((.def_20 (and G107 .def_19))) (let ((.def_21 (not .def_20))) (let ((.def_22 (and .def_21 .def_18))) (let ((.def_23 (and .def_22 .def_15))) (let ((.def_24 (not .def_23))) (let ((.def_25 (not .def_22))) (let ((.def_26 (and .def_25 G101))) (let ((.def_27 (not .def_26))) (let ((.def_28 (and .def_27 .def_24))) (let ((.def_29 (and .def_28 .def_14))) (let ((.def_30 (not .def_29))) (let ((.def_31 (not .def_28))) (let ((.def_32 (not .def_14))) (let ((.def_33 (and .def_32 .def_31))) (let ((.def_34 (not .def_33))) (let ((.def_35 (and .def_34 .def_30))) (let ((.def_36 (not G110))) (let ((.def_37 (and .def_36 G122))) (let ((.def_38 (not .def_37))) (let ((.def_39 (not G122))) (let ((.def_40 (and G110 .def_39))) (let ((.def_41 (not .def_40))) (let ((.def_42 (and .def_41 .def_38))) (let ((.def_43 (and .def_42 .def_35))) (let ((.def_44 (not .def_43))) (let ((.def_45 (not .def_35))) (let ((.def_46 (not .def_42))) (let ((.def_47 (and .def_46 .def_45))) (let ((.def_48 (not .def_47))) (let ((.def_49 (and .def_48 .def_44))) (let ((.def_50 (not G125))) (let ((.def_51 (not G143))) (let ((.def_52 (and .def_51 G146))) (let ((.def_53 (not .def_52))) (let ((.def_54 (not G146))) (let ((.def_55 (and .def_54 G143))) (let ((.def_56 (not .def_55))) (let ((.def_57 (and .def_56 .def_53))) (let ((.def_58 (not .def_57))) (let ((.def_59 (and G128 .def_58))) (let ((.def_60 (not .def_59))) (let ((.def_61 (not G128))) (let ((.def_62 (and .def_57 .def_61))) (let ((.def_63 (not .def_62))) (let ((.def_64 (and .def_63 .def_60))) (let ((.def_65 (and .def_64 .def_50))) (let ((.def_66 (not .def_65))) (let ((.def_67 (not .def_64))) (let ((.def_68 (and .def_67 G125))) (let ((.def_69 (not .def_68))) (let ((.def_70 (and .def_69 .def_66))) (let ((.def_71 (not G953))) (let ((.def_72 (and G224 .def_71))) (let ((.def_73 (and .def_72 .def_70))) (let ((.def_74 (not .def_73))) (let ((.def_75 (not .def_72))) (let ((.def_76 (not .def_70))) (let ((.def_77 (and .def_76 .def_75))) (let ((.def_78 (not .def_77))) (let ((.def_79 (and .def_78 .def_74))) (let ((.def_80 (and .def_79 .def_49))) (let ((.def_81 (not .def_80))) (let ((.def_82 (not .def_49))) (let ((.def_83 (not .def_79))) (let ((.def_84 (and .def_83 .def_82))) (let ((.def_85 (not .def_84))) (let ((.def_86 (and .def_85 .def_81))) (let ((.def_87 (and .def_86 .def_0))) (let ((.def_88 (not .def_87))) (let ((.def_89 (not G237))) (let ((.def_90 (and .def_0 .def_89))) (let ((.def_91 (not .def_90))) (let ((.def_92 (and .def_91 G210))) (let ((.def_93 (and .def_92 .def_88))) (let ((.def_94 (not .def_93))) (let ((.def_95 (not .def_92))) (let ((.def_96 (and .def_95 .def_87))) (let ((.def_97 (not .def_96))) (let ((.def_98 (and .def_97 .def_94))) (let ((.def_99 (and G214 .def_91))) (let ((.def_100 (not .def_99))) (let ((.def_101 (and .def_100 .def_98))) (let ((.def_102 (and .def_71 G234 G217))) (let ((.def_103 (not .def_102))) (let ((.def_104 (and G116 .def_39))) (let ((.def_105 (not .def_104))) (let ((.def_106 (and .def_4 G122))) (let ((.def_107 (not .def_106))) (let ((.def_108 (and .def_107 .def_105))) (let ((.def_109 (not .def_108))) (let ((.def_110 (and .def_109 G107))) (let ((.def_111 (not .def_110))) (let ((.def_112 (and .def_108 .def_16))) (let ((.def_113 (not .def_112))) (let ((.def_114 (and .def_113 .def_111))) (let ((.def_115 (not G134))) (let ((.def_116 (and .def_61 G143))) (let ((.def_117 (not .def_116))) (let ((.def_118 (and .def_51 G128))) (let ((.def_119 (not .def_118))) (let ((.def_120 (and .def_119 .def_117))) (let ((.def_121 (and .def_120 .def_115))) (let ((.def_122 (not .def_121))) (let ((.def_123 (not .def_120))) (let ((.def_124 (and G134 .def_123))) (let ((.def_125 (not .def_124))) (let ((.def_126 (and .def_125 .def_122))) (let ((.def_127 (not .def_126))) (let ((.def_128 (and .def_127 .def_114))) (let ((.def_129 (not .def_128))) (let ((.def_130 (not .def_114))) (let ((.def_131 (and .def_130 .def_126))) (let ((.def_132 (not .def_131))) (let ((.def_133 (and .def_132 .def_129))) (let ((.def_134 (not .def_133))) (let ((.def_135 (and .def_134 .def_103))) (let ((.def_136 (not .def_135))) (let ((.def_137 (and .def_133 .def_102))) (let ((.def_138 (not .def_137))) (let ((.def_139 (and .def_138 .def_136))) (let ((.def_140 (not .def_139))) (let ((.def_141 (and .def_0 .def_140))) (let ((.def_142 (not G478))) (let ((.def_143 (and .def_142 .def_141))) (let ((.def_144 (not .def_143))) (let ((.def_145 (not .def_141))) (let ((.def_146 (and .def_145 G478))) (let ((.def_147 (not .def_146))) (let ((.def_148 (and .def_147 .def_144))) (let ((.def_149 (not .def_148))) (let ((.def_150 (and .def_50 G140))) (let ((.def_151 (not .def_150))) (let ((.def_152 (not G140))) (let ((.def_153 (and .def_152 G125))) (let ((.def_154 (not .def_153))) (let ((.def_155 (and .def_154 .def_151))) (let ((.def_156 (and .def_54 .def_155))) (let ((.def_157 (not .def_156))) (let ((.def_158 (not .def_155))) (let ((.def_159 (and G146 .def_158))) (let ((.def_160 (not .def_159))) (let ((.def_161 (and .def_160 .def_157))) (let ((.def_162 (not G131))) (let ((.def_163 (and .def_71 G214 .def_89))) (let ((.def_164 (and G143 .def_163))) (let ((.def_165 (not .def_164))) (let ((.def_166 (not .def_163))) (let ((.def_167 (and .def_51 .def_166))) (let ((.def_168 (not .def_167))) (let ((.def_169 (and .def_168 .def_165))) (let ((.def_170 (and .def_169 .def_162))) (let ((.def_171 (not .def_170))) (let ((.def_172 (not .def_169))) (let ((.def_173 (and .def_172 G131))) (let ((.def_174 (not .def_173))) (let ((.def_175 (and .def_174 .def_171))) (let ((.def_176 (not .def_175))) (let ((.def_177 (and .def_176 .def_161))) (let ((.def_178 (not .def_177))) (let ((.def_179 (not .def_161))) (let ((.def_180 (and .def_179 .def_175))) (let ((.def_181 (not .def_180))) (let ((.def_182 (and .def_181 .def_178))) (let ((.def_183 (and G122 .def_11))) (let ((.def_184 (not .def_183))) (let ((.def_185 (and .def_39 G113))) (let ((.def_186 (not .def_185))) (let ((.def_187 (and .def_186 .def_184))) (let ((.def_188 (and .def_187 .def_19))) (let ((.def_189 (not .def_188))) (let ((.def_190 (not .def_187))) (let ((.def_191 (and G104 .def_190))) (let ((.def_192 (not .def_191))) (let ((.def_193 (and .def_192 .def_189))) (let ((.def_194 (not .def_193))) (let ((.def_195 (and .def_194 .def_182))) (let ((.def_196 (not .def_195))) (let ((.def_197 (not .def_182))) (let ((.def_198 (and .def_193 .def_197))) (let ((.def_199 (not .def_198))) (let ((.def_200 (and .def_199 .def_196))) (let ((.def_201 (not .def_200))) (let ((.def_202 (and .def_0 .def_201))) (let ((.def_203 (not G475))) (let ((.def_204 (and .def_203 .def_202))) (let ((.def_205 (not .def_204))) (let ((.def_206 (not .def_202))) (let ((.def_207 (and .def_206 G475))) (let ((.def_208 (not .def_207))) (let ((.def_209 (and .def_208 .def_205))) (let ((.def_210 (and .def_209 .def_149))) (let ((.def_211 (and G237 G234))) (let ((.def_212 (not .def_211))) (let ((.def_213 (and .def_212 .def_71 G952))) (let ((.def_214 (not .def_213))) (let ((.def_215 (not G900))) (let ((.def_216 (and .def_212 G953 G902 .def_215))) (let ((.def_217 (not .def_216))) (let ((.def_218 (and .def_217 .def_214))) (let ((.def_219 (not .def_218))) (let ((.def_220 (and G128 .def_1))) (let ((.def_221 (not .def_220))) (let ((.def_222 (and G119 .def_61))) (let ((.def_223 (not .def_222))) (let ((.def_224 (and .def_223 .def_221))) (let ((.def_225 (not .def_224))) (let ((.def_226 (and .def_225 G110))) (let ((.def_227 (not .def_226))) (let ((.def_228 (and .def_36 .def_224))) (let ((.def_229 (not .def_228))) (let ((.def_230 (and .def_229 .def_227))) (let ((.def_231 (and .def_155 .def_54))) (let ((.def_232 (not .def_231))) (let ((.def_233 (and .def_160 .def_232))) (let ((.def_234 (not .def_233))) (let ((.def_235 (and .def_234 .def_230))) (let ((.def_236 (not .def_235))) (let ((.def_237 (not .def_230))) (let ((.def_238 (and .def_233 .def_237))) (let ((.def_239 (not .def_238))) (let ((.def_240 (and .def_239 .def_236))) (let ((.def_241 (not .def_240))) (let ((.def_242 (and G234 G221 .def_71))) (let ((.def_243 (and G137 .def_242))) (let ((.def_244 (not .def_243))) (let ((.def_245 (not G137))) (let ((.def_246 (not .def_242))) (let ((.def_247 (and .def_246 .def_245))) (let ((.def_248 (not .def_247))) (let ((.def_249 (and .def_248 .def_244))) (let ((.def_250 (not .def_249))) (let ((.def_251 (and .def_250 .def_241))) (let ((.def_252 (not .def_251))) (let ((.def_253 (and .def_249 .def_240))) (let ((.def_254 (not .def_253))) (let ((.def_255 (and .def_254 .def_252))) (let ((.def_256 (not .def_255))) (let ((.def_257 (and .def_256 .def_0))) (let ((.def_258 (not .def_257))) (let ((.def_259 (and .def_0 G234))) (let ((.def_260 (not .def_259))) (let ((.def_261 (and .def_260 G217))) (let ((.def_262 (and .def_261 .def_258))) (let ((.def_263 (not .def_262))) (let ((.def_264 (not .def_261))) (let ((.def_265 (and .def_264 .def_257))) (let ((.def_266 (not .def_265))) (let ((.def_267 (and .def_266 .def_263))) (let ((.def_268 (and .def_71 .def_89 G210))) (let ((.def_269 (and G101 .def_268))) (let ((.def_270 (not .def_269))) (let ((.def_271 (not .def_268))) (let ((.def_272 (and .def_15 .def_271))) (let ((.def_273 (not .def_272))) (let ((.def_274 (and .def_273 .def_270))) (let ((.def_275 (not .def_274))) (let ((.def_276 (and .def_4 G119))) (let ((.def_277 (not .def_276))) (let ((.def_278 (and .def_3 .def_277))) (let ((.def_279 (and .def_11 .def_278))) (let ((.def_280 (not .def_279))) (let ((.def_281 (not .def_278))) (let ((.def_282 (and .def_281 G113))) (let ((.def_283 (not .def_282))) (let ((.def_284 (and .def_283 .def_280))) (let ((.def_285 (and .def_245 G134))) (let ((.def_286 (not .def_285))) (let ((.def_287 (and .def_115 G137))) (let ((.def_288 (not .def_287))) (let ((.def_289 (and .def_288 .def_286))) (let ((.def_290 (and .def_162 .def_289))) (let ((.def_291 (not .def_290))) (let ((.def_292 (not .def_289))) (let ((.def_293 (and .def_292 G131))) (let ((.def_294 (not .def_293))) (let ((.def_295 (and .def_294 .def_291))) (let ((.def_296 (and .def_64 .def_295))) (let ((.def_297 (not .def_296))) (let ((.def_298 (not .def_295))) (let ((.def_299 (and .def_298 .def_67))) (let ((.def_300 (not .def_299))) (let ((.def_301 (and .def_300 .def_297))) (let ((.def_302 (and .def_301 .def_284))) (let ((.def_303 (not .def_302))) (let ((.def_304 (not .def_284))) (let ((.def_305 (not .def_301))) (let ((.def_306 (and .def_305 .def_304))) (let ((.def_307 (not .def_306))) (let ((.def_308 (and .def_307 .def_303))) (let ((.def_309 (and .def_308 .def_275))) (let ((.def_310 (not .def_309))) (let ((.def_311 (not .def_308))) (let ((.def_312 (and .def_274 .def_311))) (let ((.def_313 (not .def_312))) (let ((.def_314 (and .def_313 .def_310))) (let ((.def_315 (not .def_314))) (let ((.def_316 (and .def_0 .def_315))) (let ((.def_317 (not .def_316))) (let ((.def_318 (and G472 .def_317))) (let ((.def_319 (not .def_318))) (let ((.def_320 (not G472))) (let ((.def_321 (and .def_320 .def_316))) (let ((.def_322 (not .def_321))) (let ((.def_323 (and .def_322 .def_319))) (let ((.def_324 (not .def_323))) (let ((.def_325 (and .def_324 .def_267))) (let ((.def_326 (and .def_152 G110))) (let ((.def_327 (not .def_326))) (let ((.def_328 (and G140 .def_36))) (let ((.def_329 (not .def_328))) (let ((.def_330 (and .def_329 .def_327))) (let ((.def_331 (and .def_71 G227))) (let ((.def_332 (and .def_331 .def_330))) (let ((.def_333 (not .def_332))) (let ((.def_334 (not .def_330))) (let ((.def_335 (not .def_331))) (let ((.def_336 (and .def_335 .def_334))) (let ((.def_337 (not .def_336))) (let ((.def_338 (and .def_337 .def_333))) (let ((.def_339 (and G104 .def_16))) (let ((.def_340 (not .def_339))) (let ((.def_341 (and .def_19 G107))) (let ((.def_342 (not .def_341))) (let ((.def_343 (and .def_342 .def_340))) (let ((.def_344 (and .def_343 .def_15))) (let ((.def_345 (not .def_344))) (let ((.def_346 (not .def_343))) (let ((.def_347 (and .def_346 G101))) (let ((.def_348 (not .def_347))) (let ((.def_349 (and .def_348 .def_345))) (let ((.def_350 (not .def_349))) (let ((.def_351 (and G146 .def_51))) (let ((.def_352 (not .def_351))) (let ((.def_353 (and .def_352 .def_56))) (let ((.def_354 (and .def_61 .def_353))) (let ((.def_355 (not .def_354))) (let ((.def_356 (not .def_353))) (let ((.def_357 (and G128 .def_356))) (let ((.def_358 (not .def_357))) (let ((.def_359 (and .def_358 .def_355))) (let ((.def_360 (not .def_359))) (let ((.def_361 (and .def_360 .def_350))) (let ((.def_362 (not .def_361))) (let ((.def_363 (and .def_349 .def_359))) (let ((.def_364 (not .def_363))) (let ((.def_365 (and .def_364 .def_362))) (let ((.def_366 (not .def_365))) (let ((.def_367 (and .def_298 .def_366))) (let ((.def_368 (not .def_367))) (let ((.def_369 (and .def_295 .def_365))) (let ((.def_370 (not .def_369))) (let ((.def_371 (and .def_370 .def_368))) (let ((.def_372 (and .def_371 .def_338))) (let ((.def_373 (not .def_372))) (let ((.def_374 (not .def_338))) (let ((.def_375 (not .def_371))) (let ((.def_376 (and .def_375 .def_374))) (let ((.def_377 (not .def_376))) (let ((.def_378 (and .def_377 .def_373))) (let ((.def_379 (not .def_378))) (let ((.def_380 (and .def_0 .def_379))) (let ((.def_381 (not .def_380))) (let ((.def_382 (and .def_381 G469))) (let ((.def_383 (not .def_382))) (let ((.def_384 (not G469))) (let ((.def_385 (and .def_384 .def_380))) (let ((.def_386 (not .def_385))) (let ((.def_387 (and .def_386 .def_383))) (let ((.def_388 (not .def_387))) (let ((.def_389 (and G221 .def_260))) (let ((.def_390 (not .def_389))) (let ((.def_391 (and .def_390 .def_388))) (let ((.def_392 (and .def_391 .def_325 .def_219 .def_210 .def_101))) (let ((.def_393 (and .def_115 .def_392))) (let ((.def_394 (not .def_393))) (let ((.def_395 (not .def_392))) (let ((.def_396 (and G134 .def_395))) (let ((.def_397 (not .def_396))) (let ((.def_398 (and .def_397 .def_394))) (let ((.def_399 (not .def_98))) (let ((.def_400 (and .def_399 .def_100))) (let ((.def_401 (not G898))) (let ((.def_402 (and .def_401 G953 .def_212 G902))) (let ((.def_403 (not .def_402))) (let ((.def_404 (and .def_214 .def_403))) (let ((.def_405 (not .def_404))) (let ((.def_406 (not .def_267))) (let ((.def_407 (and .def_323 .def_406))) (let ((.def_408 (and .def_148 .def_209))) (let ((.def_409 (and .def_408 .def_407 .def_405 .def_400 .def_391))) (let ((.def_410 (not .def_409))) (let ((.def_411 (and .def_410 G110))) (let ((.def_412 (not .def_411))) (let ((.def_413 (and .def_409 .def_36))) (let ((.def_414 (not .def_413))) (let ((.def_415 (and .def_414 .def_412))) (let ((.def_416 (not G952))) (let ((.def_417 (and .def_416 G953))) (let ((.def_418 (not .def_417))) (let ((.def_419 (and G125 .def_67))) (let ((.def_420 (not .def_419))) (let ((.def_421 (and .def_420 .def_66))) (let ((.def_422 (and .def_72 .def_421))) (let ((.def_423 (not .def_422))) (let ((.def_424 (not .def_421))) (let ((.def_425 (and .def_424 .def_75))) (let ((.def_426 (not .def_425))) (let ((.def_427 (and .def_426 .def_423))) (let ((.def_428 (and .def_82 .def_427))) (let ((.def_429 (not .def_428))) (let ((.def_430 (not .def_427))) (let ((.def_431 (and .def_430 .def_49))) (let ((.def_432 (not .def_431))) (let ((.def_433 (and .def_432 .def_429))) (let ((.def_434 (and .def_390 .def_387))) (let ((.def_435 (not .def_209))) (let ((.def_436 (and .def_148 .def_435))) (let ((.def_437 (and .def_436 .def_325 .def_405 .def_400 .def_434))) (let ((.def_438 (not .def_437))) (let ((.def_439 (and .def_324 .def_406))) (let ((.def_440 (and .def_439 .def_405 .def_400 .def_434 .def_408))) (let ((.def_441 (not .def_440))) (let ((.def_442 (and .def_408 .def_325 .def_405 .def_400 .def_391))) (let ((.def_443 (not .def_442))) (let ((.def_444 (and .def_323 .def_267))) (let ((.def_445 (and .def_444 .def_210 .def_405 .def_400 .def_391))) (let ((.def_446 (not .def_445))) (let ((.def_447 (and .def_444 .def_436 .def_405 .def_400 .def_391))) (let ((.def_448 (not .def_447))) (let ((.def_449 (and .def_149 .def_435))) (let ((.def_450 (and .def_444 .def_449 .def_405 .def_400 .def_434))) (let ((.def_451 (not .def_450))) (let ((.def_452 (and .def_325 .def_210 .def_405 .def_400 .def_434))) (let ((.def_453 (not .def_452))) (let ((.def_454 (and .def_453 .def_451 .def_448 .def_410 .def_446 .def_443 .def_441 .def_438))) (let ((.def_455 (and .def_391 .def_439 .def_219 .def_101 .def_408))) (let ((.def_456 (not .def_455))) (let ((.def_457 (and .def_439 .def_219 .def_210 .def_400 .def_391))) (let ((.def_458 (not .def_457))) (let ((.def_459 (and .def_391 .def_439 .def_436 .def_219 .def_400))) (let ((.def_460 (not .def_459))) (let ((.def_461 (and .def_391 .def_436 .def_325 .def_219 .def_101))) (let ((.def_462 (not .def_461))) (let ((.def_463 (and .def_436 .def_219 .def_407 .def_400 .def_434))) (let ((.def_464 (not .def_463))) (let ((.def_465 (and .def_391 .def_436 .def_219 .def_407 .def_101))) (let ((.def_466 (not .def_465))) (let ((.def_467 (and .def_391 .def_449 .def_325 .def_219 .def_400))) (let ((.def_468 (not .def_467))) (let ((.def_469 (and .def_468 .def_466 .def_464 .def_462 .def_460 .def_458 .def_456 .def_395))) (let ((.def_470 (and .def_469 .def_454))) (let ((.def_471 (not .def_470))) (let ((.def_472 (and .def_471 G902 .def_92))) (let ((.def_473 (and .def_472 .def_433))) (let ((.def_474 (not .def_473))) (let ((.def_475 (not .def_472))) (let ((.def_476 (not .def_433))) (let ((.def_477 (and .def_476 .def_475))) (let ((.def_478 (not .def_477))) (let ((.def_479 (and .def_478 .def_474))) (let ((.def_480 (not .def_479))) (let ((.def_481 (and .def_480 .def_418))) (let ((.def_482 (not .def_481))) (let ((.def_483 (and G900 G227))) (let ((.def_484 (not .def_483))) (let ((.def_485 (and G953 .def_484))) (let ((.def_486 (and G125 .def_152))) (let ((.def_487 (not .def_486))) (let ((.def_488 (and .def_151 .def_487))) (let ((.def_489 (and G137 .def_115))) (let ((.def_490 (not .def_489))) (let ((.def_491 (and .def_490 .def_286))) (let ((.def_492 (not .def_491))) (let ((.def_493 (and .def_492 G131))) (let ((.def_494 (not .def_493))) (let ((.def_495 (and .def_162 .def_491))) (let ((.def_496 (not .def_495))) (let ((.def_497 (and .def_496 .def_494))) (let ((.def_498 (and .def_497 .def_359))) (let ((.def_499 (not .def_498))) (let ((.def_500 (not .def_497))) (let ((.def_501 (and .def_360 .def_500))) (let ((.def_502 (not .def_501))) (let ((.def_503 (and .def_502 .def_499))) (let ((.def_504 (and .def_503 .def_488))) (let ((.def_505 (not .def_504))) (let ((.def_506 (not .def_488))) (let ((.def_507 (not .def_503))) (let ((.def_508 (and .def_507 .def_506))) (let ((.def_509 (not .def_508))) (let ((.def_510 (and .def_509 .def_505))) (let ((.def_511 (and G953 .def_215))) (let ((.def_512 (not .def_511))) (let ((.def_513 (and .def_512 .def_510))) (let ((.def_514 (not .def_513))) (let ((.def_515 (not .def_469))) (let ((.def_516 (and .def_515 .def_71))) (let ((.def_517 (and .def_516 .def_514))) (let ((.def_518 (not .def_517))) (let ((.def_519 (not .def_516))) (let ((.def_520 (and .def_519 .def_513))) (let ((.def_521 (not .def_520))) (let ((.def_522 (and .def_521 .def_518))) (let ((.def_523 (and .def_522 .def_485))) (let ((.def_524 (not .def_523))) (let ((.def_525 (not .def_485))) (let ((.def_526 (not .def_522))) (let ((.def_527 (and .def_526 .def_525))) (let ((.def_528 (not .def_527))) (let ((.def_529 (and .def_528 .def_524))) (let ((.def_530 (and .def_61 .def_457))) (let ((.def_531 (not .def_530))) (let ((.def_532 (and .def_458 G128))) (let ((.def_533 (not .def_532))) (let ((.def_534 (and .def_533 .def_531))) (let ((.def_535 (and G104 .def_448))) (let ((.def_536 (not .def_535))) (let ((.def_537 (and .def_19 .def_447))) (let ((.def_538 (not .def_537))) (let ((.def_539 (and .def_538 .def_536))) (let ((.def_540 (not .def_539))) (let ((.def_541 (and .def_1 .def_440))) (let ((.def_542 (not .def_541))) (let ((.def_543 (and .def_441 G119))) (let ((.def_544 (not .def_543))) (let ((.def_545 (and .def_544 .def_542))) (let ((.def_546 (and G125 .def_464))) (let ((.def_547 (not .def_546))) (let ((.def_548 (and .def_50 .def_463))) (let ((.def_549 (not .def_548))) (let ((.def_550 (and .def_549 .def_547))) (let ((.def_551 (and .def_445 .def_16))) (let ((.def_552 (not .def_551))) (let ((.def_553 (and G107 .def_446))) (let ((.def_554 (not .def_553))) (let ((.def_555 (and .def_554 .def_552))) (let ((.def_556 (and .def_39 .def_450))) (let ((.def_557 (not .def_556))) (let ((.def_558 (and .def_451 G122))) (let ((.def_559 (not .def_558))) (let ((.def_560 (and .def_559 .def_557))) (let ((.def_561 (and .def_152 .def_465))) (let ((.def_562 (not .def_561))) (let ((.def_563 (and G140 .def_466))) (let ((.def_564 (not .def_563))) (let ((.def_565 (and .def_564 .def_562))) (let ((.def_566 (and .def_455 .def_245))) (let ((.def_567 (not .def_566))) (let ((.def_568 (and G137 .def_456))) (let ((.def_569 (not .def_568))) (let ((.def_570 (and .def_569 .def_567))) (let ((.def_571 (not .def_570))) (let ((.def_572 (and .def_94 .def_97))) (let ((.def_573 (and .def_383 .def_386))) (let ((.def_574 (and G475 .def_206))) (let ((.def_575 (not .def_574))) (let ((.def_576 (and .def_205 .def_575))) (let ((.def_577 (and .def_141 .def_142))) (let ((.def_578 (not .def_577))) (let ((.def_579 (and .def_578 .def_147))) (let ((.def_580 (and .def_263 .def_266))) (let ((.def_581 (and .def_316 .def_320))) (let ((.def_582 (not .def_581))) (let ((.def_583 (and .def_317 G472))) (let ((.def_584 (not .def_583))) (let ((.def_585 (and .def_584 .def_582))) (let ((.def_586 (and .def_585 .def_100 .def_580 .def_579 .def_576 .def_390 .def_573 .def_572))) (let ((.def_587 (not .def_586))) (let ((.def_588 (and .def_71 .def_416 .def_587))) (let ((.def_589 (and .def_213 .def_391 .def_444 .def_101 .def_408))) (let ((.def_590 (not .def_589))) (let ((.def_591 (and .def_213 .def_325 .def_101 .def_408 .def_434))) (let ((.def_592 (not .def_591))) (let ((.def_593 (and .def_213 .def_444 .def_436 .def_101 .def_434))) (let ((.def_594 (not .def_593))) (let ((.def_595 (and .def_213 .def_444 .def_210 .def_101 .def_434))) (let ((.def_596 (not .def_595))) (let ((.def_597 (and .def_213 .def_444 .def_400 .def_434 .def_408))) (let ((.def_598 (not .def_597))) (let ((.def_599 (and .def_99 .def_98))) (let ((.def_600 (and .def_213 .def_444 .def_434 .def_408 .def_599))) (let ((.def_601 (not .def_600))) (let ((.def_602 (and .def_387 .def_389))) (let ((.def_603 (and .def_213 .def_444 .def_602 .def_101 .def_408))) (let ((.def_604 (not .def_603))) (let ((.def_605 (and .def_213 .def_407 .def_101 .def_408 .def_434))) (let ((.def_606 (not .def_605))) (let ((.def_607 (and .def_606 .def_604 .def_601 .def_598 .def_596 .def_594 .def_592 .def_590))) (let ((.def_608 (and .def_469 .def_607 .def_454))) (let ((.def_609 (and .def_71 .def_608 .def_587 G952))) (let ((.def_610 (or .def_609 .def_588))) (let ((.def_611 (not .def_610))) (let ((.def_612 (and .def_443 G101))) (let ((.def_613 (not .def_612))) (let ((.def_614 (and .def_15 .def_442))) (let ((.def_615 (not .def_614))) (let ((.def_616 (and .def_615 .def_613))) (let ((.def_617 (and .def_11 .def_437))) (let ((.def_618 (not .def_617))) (let ((.def_619 (and G113 .def_438))) (let ((.def_620 (not .def_619))) (let ((.def_621 (and .def_620 .def_618))) (let ((.def_622 (not .def_621))) (let ((.def_623 (and .def_452 .def_4))) (let ((.def_624 (not .def_623))) (let ((.def_625 (and G116 .def_453))) (let ((.def_626 (not .def_625))) (let ((.def_627 (and .def_626 .def_624))) (let ((.def_628 (not .def_627))) (let ((.def_629 (and .def_471 G902 .def_261))) (let ((.def_630 (and .def_629 .def_255))) (let ((.def_631 (not .def_630))) (let ((.def_632 (not .def_629))) (let ((.def_633 (and .def_632 .def_256))) (let ((.def_634 (not .def_633))) (let ((.def_635 (and .def_634 .def_631))) (let ((.def_636 (not .def_635))) (let ((.def_637 (and .def_636 .def_418))) (let ((.def_638 (not .def_637))) (let ((.def_639 (and .def_638 .def_628 .def_622 .def_616 .def_611 .def_571 .def_565 .def_560 .def_555 .def_550 .def_545 .def_540 .def_534 .def_529 .def_482 .def_415 .def_398))) .def_639)))))))))))))))))))))))))))))))))))))))))))))))))))))))))))))))))))))))))))))))))))))))))))))))))))))))))))))))))))))))))))))))))))))))))))))))))))))))))))))))))))))))))))))))))))))))))))))))))))))))))))))))))))))))))))))))))))))))))))))))))))))))))))))))))))))))))))))))))))))))))))))))))))))))))))))))))))))))))))))))))))))))))))))))))))))))))))))))))))))))))))))))))))))))))))))))))))))))))))))))))))))))))))))))))))))))))))))))))))))))))))))))))))))))))))))))))))))))))))))))))))))))))))))))))))))))))))))))))))))))))))))))))))))))))))))))))))))))))))))))))))))))))))))))))))))))))))))))))))))))))))))))))))))))))))))))))))))))))))))))))
(check-sat)
